c File: data_files/evolved_graphs/g7996.col
c
c Auto generated graph
c
p edge 100 191
e 1 61
e 1 62
e 1 89
e 1 99
e 2 45
e 2 58
e 2 96
e 2 100
e 3 14
e 3 36
e 3 57
e 3 98
e 4 5
e 4 53
e 4 85
e 4 91
e 4 95
e 5 11
e 5 47
e 5 99
e 6 34
e 6 81
e 6 82
e 6 85
e 7 27
e 7 50
e 7 68
e 7 99
e 8 60
e 8 69
e 8 96
e 8 99
e 9 15
e 9 29
e 9 60
e 9 89
e 10 40
e 10 65
e 10 89
e 11 23
e 11 35
e 11 37
e 11 44
e 12 29
e 12 76
e 12 82
e 12 91
e 13 31
e 13 35
e 13 41
e 13 81
e 13 88
e 14 33
e 14 43
e 14 83
e 14 100
e 15 25
e 15 71
e 15 96
e 16 33
e 16 35
e 16 49
e 16 72
e 17 26
e 17 32
e 17 49
e 17 63
e 17 74
e 17 88
e 18 29
e 18 61
e 18 65
e 19 23
e 19 58
e 19 64
e 19 94
e 20 56
e 20 71
e 20 73
e 20 100
e 21 25
e 21 40
e 21 67
e 22 55
e 22 64
e 22 77
e 22 89
e 23 25
e 23 32
e 24 25
e 24 46
e 24 65
e 24 100
e 26 53
e 26 54
e 27 28
e 27 64
e 27 68
e 28 63
e 29 76
e 29 79
e 31 33
e 31 46
e 32 34
e 32 90
e 33 46
e 33 50
e 34 51
e 34 64
e 35 51
e 35 66
e 36 72
e 36 88
e 37 48
e 37 88
e 37 96
e 38 40
e 38 69
e 38 78
e 38 92
e 38 98
e 39 45
e 39 62
e 39 64
e 41 48
e 41 49
e 41 59
e 41 87
e 42 43
e 42 70
e 42 77
e 43 52
e 43 92
e 44 57
e 44 80
e 44 86
e 45 85
e 46 52
e 47 56
e 47 68
e 48 51
e 48 82
e 49 57
e 49 80
e 50 99
e 51 58
e 52 54
e 52 87
e 53 93
e 55 82
e 55 92
e 55 95
e 56 57
e 56 67
e 59 72
e 59 74
e 60 67
e 62 70
e 62 78
e 63 69
e 65 97
e 66 70
e 66 98
e 67 76
e 68 75
e 69 75
e 71 76
e 71 86
e 73 74
e 73 79
e 73 97
e 74 96
e 75 80
e 75 89
e 77 78
e 77 83
e 78 83
e 79 84
e 79 95
e 80 81
e 80 90
e 81 82
e 84 86
e 84 98
e 85 94
e 87 93
e 88 94
e 90 94
e 91 97
e 91 98
e 92 93
